(set-info :smt-lib-version 2.6)
(set-logic AUFBVFPDTNIRA)
(set-info :source |
Generated by: AdaCore
Generated on: 2020-03-06
Generator: SPARK
Application: Program verification for Ada
Target solver: CVC4
|)
(set-info :license "https://creativecommons.org/licenses/by/4.0/")
(set-info :category "industrial")
(set-info :status unknown)
;;; generated by SMT-LIB2 driver
;;; SMT-LIB2 driver: bit-vectors, common part
;;; SMT-LIB2: integer arithmetic
(declare-sort string 0)

(declare-datatypes ((tuple0 0))
(((Tuple0))))
(declare-sort us_private 0)

(declare-fun private__bool_eq (us_private us_private) Bool)

(declare-const us_null_ext__ us_private)

(declare-sort us_type_of_heap 0)

(declare-datatypes ((us_type_of_heap__ref 0))
(((us_type_of_heap__refqtmk (us_type_of_heap__content us_type_of_heap)))))
(declare-sort us_image 0)

(declare-datatypes ((int__ref 0))
(((int__refqtmk (int__content Int)))))
(declare-datatypes ((bool__ref 0))
(((bool__refqtmk (bool__content Bool)))))
(declare-datatypes ((us_fixed__ref 0))
(((us_fixed__refqtmk (us_fixed__content Int)))))
(declare-datatypes ((real__ref 0))
(((real__refqtmk (real__content Real)))))
(declare-datatypes ((us_private__ref 0))
(((us_private__refqtmk (us_private__content us_private)))))
(define-fun int__ref___projection ((a int__ref)) Int (int__content a))

(define-fun us_fixed__ref___projection ((a us_fixed__ref)) Int (us_fixed__content
                                                               a))

(define-fun bool__ref___projection ((a bool__ref)) Bool (bool__content a))

(define-fun real__ref___projection ((a real__ref)) Real (real__content a))

(define-fun us_private__ref___projection ((a us_private__ref)) us_private 
  (us_private__content a))

(define-fun abs1 ((x Int)) Int (ite (<= 0 x) x (- x)))

;; Abs_le
  (assert
  (forall ((x Int) (y Int)) (= (<= (abs1 x) y) (and (<= (- y) x) (<= x y)))))

;; Abs_pos
  (assert (forall ((x Int)) (<= 0 (abs1 x))))

(declare-fun div1 (Int Int) Int)

(declare-fun mod1 (Int Int) Int)

;; Div_mod
  (assert
  (forall ((x Int) (y Int))
  (=> (not (= y 0)) (= x (+ (* y (div1 x y)) (mod1 x y))))))

;; Div_bound
  (assert
  (forall ((x Int) (y Int))
  (=> (and (<= 0 x) (< 0 y)) (and (<= 0 (div1 x y)) (<= (div1 x y) x)))))

;; Mod_bound
  (assert
  (forall ((x Int) (y Int))
  (=> (not (= y 0))
  (and (< (- (abs1 y)) (mod1 x y)) (< (mod1 x y) (abs1 y))))))

;; Div_sign_pos
  (assert
  (forall ((x Int) (y Int)) (=> (and (<= 0 x) (< 0 y)) (<= 0 (div1 x y)))))

;; Div_sign_neg
  (assert
  (forall ((x Int) (y Int)) (=> (and (<= x 0) (< 0 y)) (<= (div1 x y) 0))))

;; Mod_sign_pos
  (assert
  (forall ((x Int) (y Int))
  (=> (and (<= 0 x) (not (= y 0))) (<= 0 (mod1 x y)))))

;; Mod_sign_neg
  (assert
  (forall ((x Int) (y Int))
  (=> (and (<= x 0) (not (= y 0))) (<= (mod1 x y) 0))))

;; Rounds_toward_zero
  (assert
  (forall ((x Int) (y Int))
  (=> (not (= y 0)) (<= (abs1 (* (div1 x y) y)) (abs1 x)))))

;; Div_1
  (assert (forall ((x Int)) (= (div1 x 1) x)))

;; Mod_1
  (assert (forall ((x Int)) (= (mod1 x 1) 0)))

;; Div_inf
  (assert
  (forall ((x Int) (y Int)) (=> (and (<= 0 x) (< x y)) (= (div1 x y) 0))))

;; Mod_inf
  (assert
  (forall ((x Int) (y Int)) (=> (and (<= 0 x) (< x y)) (= (mod1 x y) x))))

;; Div_mult
  (assert
  (forall ((x Int) (y Int) (z Int))
  (! (=> (and (< 0 x) (and (<= 0 y) (<= 0 z)))
     (= (div1 (+ (* x y) z) x) (+ y (div1 z x)))) :pattern ((div1
                                                            (+ (* x y) z) x)) )))

;; Mod_mult
  (assert
  (forall ((x Int) (y Int) (z Int))
  (! (=> (and (< 0 x) (and (<= 0 y) (<= 0 z)))
     (= (mod1 (+ (* x y) z) x) (mod1 z x))) :pattern ((mod1 (+ (* x y) z) x)) )))

;; Div_unique
  (assert
  (forall ((x Int) (y Int) (q Int))
  (=> (< 0 y) (=> (and (<= (* q y) x) (< x (+ (* q y) y))) (= (div x y) q)))))

;; Div_bound
  (assert
  (forall ((x Int) (y Int))
  (=> (and (<= 0 x) (< 0 y)) (and (<= 0 (div x y)) (<= (div x y) x)))))

;; Div_inf
  (assert
  (forall ((x Int) (y Int)) (=> (and (<= 0 x) (< x y)) (= (div x y) 0))))

;; Div_inf_neg
  (assert
  (forall ((x Int) (y Int))
  (=> (and (< 0 x) (<= x y)) (= (div (- x) y) (- 1)))))

;; Mod_0
  (assert (forall ((y Int)) (=> (not (= y 0)) (= (mod 0 y) 0))))

;; Div_1_left
  (assert (forall ((y Int)) (=> (< 1 y) (= (div 1 y) 0))))

;; Div_minus1_left
  (assert (forall ((y Int)) (=> (< 1 y) (= (div (- 1) y) (- 1)))))

;; Mod_1_left
  (assert (forall ((y Int)) (=> (< 1 y) (= (mod 1 y) 1))))

;; Mod_minus1_left
  (assert
  (forall ((y Int))
  (! (=> (< 1 y) (= (mod (- 1) y) (- y 1))) :pattern ((mod (- 1) y)) )))

;; Div_mult
  (assert
  (forall ((x Int) (y Int) (z Int))
  (! (=> (< 0 x) (= (div (+ (* x y) z) x) (+ y (div z x)))) :pattern ((div (+ (* x y) z) x)) )))

;; Mod_mult
  (assert
  (forall ((x Int) (y Int) (z Int))
  (! (=> (< 0 x) (= (mod (+ (* x y) z) x) (mod z x))) :pattern ((mod (+ (* x y) z) x)) )))

(define-fun mod2 ((x Int)
  (y Int)) Int (ite (< 0 y) (mod x y) (+ (mod x y) y)))

(define-fun in_range ((x Int)) Bool (or (= x 0) (= x 1)))

(declare-fun attr__ATTRIBUTE_IMAGE (Bool) us_image)

(declare-fun attr__ATTRIBUTE_VALUE__pre_check (us_image) Bool)

(declare-fun attr__ATTRIBUTE_VALUE (us_image) Bool)

(declare-sort integer 0)

(declare-fun integerqtint (integer) Int)

;; integer'axiom
  (assert
  (forall ((i integer))
  (and (<= (- 2147483648) (integerqtint i)) (<= (integerqtint i) 2147483647))))

(define-fun in_range1 ((x Int)) Bool (and (<= (- 2147483648) x)
                                     (<= x 2147483647)))

(declare-fun attr__ATTRIBUTE_IMAGE1 (Int) us_image)

(declare-fun attr__ATTRIBUTE_VALUE__pre_check1 (us_image) Bool)

(declare-fun attr__ATTRIBUTE_VALUE1 (us_image) Int)

(declare-fun user_eq (integer integer) Bool)

(declare-const dummy integer)

(declare-datatypes ((integer__ref 0))
(((integer__refqtmk (integer__content integer)))))
(define-fun integer__ref_integer__content__projection ((a integer__ref)) integer 
  (integer__content a))

(declare-const x Int)

(declare-const attr__ATTRIBUTE_ADDRESS Int)

(declare-const attr__ATTRIBUTE_ADDRESS1 Int)

(declare-const attr__ATTRIBUTE_ADDRESS2 Int)

(declare-const attr__ATTRIBUTE_ADDRESS3 Int)

(declare-sort sqrt_domain 0)

(declare-fun sqrt_domainqtint (sqrt_domain) Int)

;; sqrt_domain'axiom
  (assert
  (forall ((i sqrt_domain))
  (and (<= 0 (sqrt_domainqtint i)) (<= (sqrt_domainqtint i) 2147483647))))

(define-fun in_range2 ((x1 Int)) Bool (and (<= 0 x1) (<= x1 2147483647)))

(declare-fun attr__ATTRIBUTE_IMAGE2 (Int) us_image)

(declare-fun attr__ATTRIBUTE_VALUE__pre_check2 (us_image) Bool)

(declare-fun attr__ATTRIBUTE_VALUE2 (us_image) Int)

(declare-fun user_eq1 (sqrt_domain sqrt_domain) Bool)

(declare-const dummy1 sqrt_domain)

(declare-datatypes ((sqrt_domain__ref 0))
(((sqrt_domain__refqtmk (sqrt_domain__content sqrt_domain)))))
(define-fun sqrt_domain__ref_sqrt_domain__content__projection ((a sqrt_domain__ref)) sqrt_domain 
  (sqrt_domain__content a))

(define-fun dynamic_invariant ((temp___expr_160 Int)
  (temp___is_init_156 Bool) (temp___skip_constant_157 Bool)
  (temp___do_toplevel_158 Bool)
  (temp___do_typ_inv_159 Bool)) Bool (=>
                                     (or (= temp___is_init_156 true)
                                     (<= 0 2147483647)) (in_range2
                                     temp___expr_160)))

(declare-sort sqrt_range 0)

(declare-fun sqrt_rangeqtint (sqrt_range) Int)

;; sqrt_range'axiom
  (assert
  (forall ((i sqrt_range))
  (and (<= 0 (sqrt_rangeqtint i)) (<= (sqrt_rangeqtint i) 46340))))

(define-fun in_range3 ((x1 Int)) Bool (and (<= 0 x1) (<= x1 46340)))

(declare-fun attr__ATTRIBUTE_IMAGE3 (Int) us_image)

(declare-fun attr__ATTRIBUTE_VALUE__pre_check3 (us_image) Bool)

(declare-fun attr__ATTRIBUTE_VALUE3 (us_image) Int)

(declare-fun user_eq2 (sqrt_range sqrt_range) Bool)

(declare-const dummy2 sqrt_range)

(declare-datatypes ((sqrt_range__ref 0))
(((sqrt_range__refqtmk (sqrt_range__content sqrt_range)))))
(define-fun sqrt_range__ref_sqrt_range__content__projection ((a sqrt_range__ref)) sqrt_range 
  (sqrt_range__content a))

(define-fun dynamic_invariant1 ((temp___expr_167 Int)
  (temp___is_init_163 Bool) (temp___skip_constant_164 Bool)
  (temp___do_toplevel_165 Bool)
  (temp___do_typ_inv_166 Bool)) Bool (=>
                                     (or (= temp___is_init_163 true)
                                     (<= 0 46340)) (in_range3
                                     temp___expr_167)))

(declare-sort upper_guess 0)

(declare-fun upper_guessqtint (upper_guess) Int)

;; upper_guess'axiom
  (assert
  (forall ((i upper_guess))
  (and (<= 0 (upper_guessqtint i)) (<= (upper_guessqtint i) 46341))))

(define-fun in_range4 ((x1 Int)) Bool (and (<= 0 x1) (<= x1 46341)))

(declare-fun attr__ATTRIBUTE_IMAGE4 (Int) us_image)

(declare-fun attr__ATTRIBUTE_VALUE__pre_check4 (us_image) Bool)

(declare-fun attr__ATTRIBUTE_VALUE4 (us_image) Int)

(declare-fun user_eq3 (upper_guess upper_guess) Bool)

(declare-const dummy3 upper_guess)

(declare-datatypes ((upper_guess__ref 0))
(((upper_guess__refqtmk (upper_guess__content upper_guess)))))
(define-fun upper_guess__ref_upper_guess__content__projection ((a upper_guess__ref)) upper_guess 
  (upper_guess__content a))

(define-fun dynamic_invariant2 ((temp___expr_174 Int)
  (temp___is_init_170 Bool) (temp___skip_constant_171 Bool)
  (temp___do_toplevel_172 Bool)
  (temp___do_typ_inv_173 Bool)) Bool (=>
                                     (or (= temp___is_init_170 true)
                                     (<= 0 46341)) (in_range4
                                     temp___expr_174)))

(define-fun dynamic_invariant3 ((temp___expr_18 Int) (temp___is_init_14 Bool)
  (temp___skip_constant_15 Bool) (temp___do_toplevel_16 Bool)
  (temp___do_typ_inv_17 Bool)) Bool (=>
                                    (or (= temp___is_init_14 true)
                                    (<= (- 2147483648) 2147483647))
                                    (in_range1 temp___expr_18)))

(assert
;; defqtvc
 ;; File "p.ads", line 8, characters 0-0
  (not
  (forall ((lower Int) (upper Int) (middle Int))
  (=> (dynamic_invariant x true false true true)
  (=> (dynamic_invariant1 lower false false true true)
  (=> (dynamic_invariant2 upper false false true true)
  (not (dynamic_invariant1 middle false false true true))))))))
(check-sat)
